p cnf 555 3361
1 2 3 4 5 0
-1 -2 0
-1 -3 0
-1 -4 0
-1 -5 0
-2 -3 0
-2 -4 0
-2 -5 0
-3 -4 0
-3 -5 0
-4 -5 0
6 7 8 9 10 0
-6 -7 0
-6 -8 0
-6 -9 0
-6 -10 0
-7 -8 0
-7 -9 0
-7 -10 0
-8 -9 0
-8 -10 0
-9 -10 0
11 12 13 14 15 0
-11 -12 0
-11 -13 0
-11 -14 0
-11 -15 0
-12 -13 0
-12 -14 0
-12 -15 0
-13 -14 0
-13 -15 0
-14 -15 0
16 17 18 19 20 0
-16 -17 0
-16 -18 0
-16 -19 0
-16 -20 0
-17 -18 0
-17 -19 0
-17 -20 0
-18 -19 0
-18 -20 0
-19 -20 0
21 22 23 24 25 0
-21 -22 0
-21 -23 0
-21 -24 0
-21 -25 0
-22 -23 0
-22 -24 0
-22 -25 0
-23 -24 0
-23 -25 0
-24 -25 0
26 27 28 29 30 0
-26 -27 0
-26 -28 0
-26 -29 0
-26 -30 0
-27 -28 0
-27 -29 0
-27 -30 0
-28 -29 0
-28 -30 0
-29 -30 0
31 32 33 34 35 0
-31 -32 0
-31 -33 0
-31 -34 0
-31 -35 0
-32 -33 0
-32 -34 0
-32 -35 0
-33 -34 0
-33 -35 0
-34 -35 0
36 37 38 39 40 0
-36 -37 0
-36 -38 0
-36 -39 0
-36 -40 0
-37 -38 0
-37 -39 0
-37 -40 0
-38 -39 0
-38 -40 0
-39 -40 0
41 42 43 44 45 0
-41 -42 0
-41 -43 0
-41 -44 0
-41 -45 0
-42 -43 0
-42 -44 0
-42 -45 0
-43 -44 0
-43 -45 0
-44 -45 0
46 47 48 49 50 0
-46 -47 0
-46 -48 0
-46 -49 0
-46 -50 0
-47 -48 0
-47 -49 0
-47 -50 0
-48 -49 0
-48 -50 0
-49 -50 0
51 52 53 54 55 0
-51 -52 0
-51 -53 0
-51 -54 0
-51 -55 0
-52 -53 0
-52 -54 0
-52 -55 0
-53 -54 0
-53 -55 0
-54 -55 0
56 57 58 59 60 0
-56 -57 0
-56 -58 0
-56 -59 0
-56 -60 0
-57 -58 0
-57 -59 0
-57 -60 0
-58 -59 0
-58 -60 0
-59 -60 0
61 62 63 64 65 0
-61 -62 0
-61 -63 0
-61 -64 0
-61 -65 0
-62 -63 0
-62 -64 0
-62 -65 0
-63 -64 0
-63 -65 0
-64 -65 0
66 67 68 69 70 0
-66 -67 0
-66 -68 0
-66 -69 0
-66 -70 0
-67 -68 0
-67 -69 0
-67 -70 0
-68 -69 0
-68 -70 0
-69 -70 0
71 72 73 74 75 0
-71 -72 0
-71 -73 0
-71 -74 0
-71 -75 0
-72 -73 0
-72 -74 0
-72 -75 0
-73 -74 0
-73 -75 0
-74 -75 0
76 77 78 79 80 0
-76 -77 0
-76 -78 0
-76 -79 0
-76 -80 0
-77 -78 0
-77 -79 0
-77 -80 0
-78 -79 0
-78 -80 0
-79 -80 0
81 82 83 84 85 0
-81 -82 0
-81 -83 0
-81 -84 0
-81 -85 0
-82 -83 0
-82 -84 0
-82 -85 0
-83 -84 0
-83 -85 0
-84 -85 0
86 87 88 89 90 0
-86 -87 0
-86 -88 0
-86 -89 0
-86 -90 0
-87 -88 0
-87 -89 0
-87 -90 0
-88 -89 0
-88 -90 0
-89 -90 0
91 92 93 94 95 0
-91 -92 0
-91 -93 0
-91 -94 0
-91 -95 0
-92 -93 0
-92 -94 0
-92 -95 0
-93 -94 0
-93 -95 0
-94 -95 0
96 97 98 99 100 0
-96 -97 0
-96 -98 0
-96 -99 0
-96 -100 0
-97 -98 0
-97 -99 0
-97 -100 0
-98 -99 0
-98 -100 0
-99 -100 0
101 102 103 104 105 0
-101 -102 0
-101 -103 0
-101 -104 0
-101 -105 0
-102 -103 0
-102 -104 0
-102 -105 0
-103 -104 0
-103 -105 0
-104 -105 0
106 107 108 109 110 0
-106 -107 0
-106 -108 0
-106 -109 0
-106 -110 0
-107 -108 0
-107 -109 0
-107 -110 0
-108 -109 0
-108 -110 0
-109 -110 0
111 112 113 114 115 0
-111 -112 0
-111 -113 0
-111 -114 0
-111 -115 0
-112 -113 0
-112 -114 0
-112 -115 0
-113 -114 0
-113 -115 0
-114 -115 0
116 117 118 119 120 0
-116 -117 0
-116 -118 0
-116 -119 0
-116 -120 0
-117 -118 0
-117 -119 0
-117 -120 0
-118 -119 0
-118 -120 0
-119 -120 0
121 122 123 124 125 0
-121 -122 0
-121 -123 0
-121 -124 0
-121 -125 0
-122 -123 0
-122 -124 0
-122 -125 0
-123 -124 0
-123 -125 0
-124 -125 0
126 127 128 129 130 0
-126 -127 0
-126 -128 0
-126 -129 0
-126 -130 0
-127 -128 0
-127 -129 0
-127 -130 0
-128 -129 0
-128 -130 0
-129 -130 0
131 132 133 134 135 0
-131 -132 0
-131 -133 0
-131 -134 0
-131 -135 0
-132 -133 0
-132 -134 0
-132 -135 0
-133 -134 0
-133 -135 0
-134 -135 0
136 137 138 139 140 0
-136 -137 0
-136 -138 0
-136 -139 0
-136 -140 0
-137 -138 0
-137 -139 0
-137 -140 0
-138 -139 0
-138 -140 0
-139 -140 0
141 142 143 144 145 0
-141 -142 0
-141 -143 0
-141 -144 0
-141 -145 0
-142 -143 0
-142 -144 0
-142 -145 0
-143 -144 0
-143 -145 0
-144 -145 0
146 147 148 149 150 0
-146 -147 0
-146 -148 0
-146 -149 0
-146 -150 0
-147 -148 0
-147 -149 0
-147 -150 0
-148 -149 0
-148 -150 0
-149 -150 0
151 152 153 154 155 0
-151 -152 0
-151 -153 0
-151 -154 0
-151 -155 0
-152 -153 0
-152 -154 0
-152 -155 0
-153 -154 0
-153 -155 0
-154 -155 0
156 157 158 159 160 0
-156 -157 0
-156 -158 0
-156 -159 0
-156 -160 0
-157 -158 0
-157 -159 0
-157 -160 0
-158 -159 0
-158 -160 0
-159 -160 0
161 162 163 164 165 0
-161 -162 0
-161 -163 0
-161 -164 0
-161 -165 0
-162 -163 0
-162 -164 0
-162 -165 0
-163 -164 0
-163 -165 0
-164 -165 0
166 167 168 169 170 0
-166 -167 0
-166 -168 0
-166 -169 0
-166 -170 0
-167 -168 0
-167 -169 0
-167 -170 0
-168 -169 0
-168 -170 0
-169 -170 0
171 172 173 174 175 0
-171 -172 0
-171 -173 0
-171 -174 0
-171 -175 0
-172 -173 0
-172 -174 0
-172 -175 0
-173 -174 0
-173 -175 0
-174 -175 0
176 177 178 179 180 0
-176 -177 0
-176 -178 0
-176 -179 0
-176 -180 0
-177 -178 0
-177 -179 0
-177 -180 0
-178 -179 0
-178 -180 0
-179 -180 0
181 182 183 184 185 0
-181 -182 0
-181 -183 0
-181 -184 0
-181 -185 0
-182 -183 0
-182 -184 0
-182 -185 0
-183 -184 0
-183 -185 0
-184 -185 0
186 187 188 189 190 0
-186 -187 0
-186 -188 0
-186 -189 0
-186 -190 0
-187 -188 0
-187 -189 0
-187 -190 0
-188 -189 0
-188 -190 0
-189 -190 0
191 192 193 194 195 0
-191 -192 0
-191 -193 0
-191 -194 0
-191 -195 0
-192 -193 0
-192 -194 0
-192 -195 0
-193 -194 0
-193 -195 0
-194 -195 0
196 197 198 199 200 0
-196 -197 0
-196 -198 0
-196 -199 0
-196 -200 0
-197 -198 0
-197 -199 0
-197 -200 0
-198 -199 0
-198 -200 0
-199 -200 0
201 202 203 204 205 0
-201 -202 0
-201 -203 0
-201 -204 0
-201 -205 0
-202 -203 0
-202 -204 0
-202 -205 0
-203 -204 0
-203 -205 0
-204 -205 0
206 207 208 209 210 0
-206 -207 0
-206 -208 0
-206 -209 0
-206 -210 0
-207 -208 0
-207 -209 0
-207 -210 0
-208 -209 0
-208 -210 0
-209 -210 0
211 212 213 214 215 0
-211 -212 0
-211 -213 0
-211 -214 0
-211 -215 0
-212 -213 0
-212 -214 0
-212 -215 0
-213 -214 0
-213 -215 0
-214 -215 0
216 217 218 219 220 0
-216 -217 0
-216 -218 0
-216 -219 0
-216 -220 0
-217 -218 0
-217 -219 0
-217 -220 0
-218 -219 0
-218 -220 0
-219 -220 0
221 222 223 224 225 0
-221 -222 0
-221 -223 0
-221 -224 0
-221 -225 0
-222 -223 0
-222 -224 0
-222 -225 0
-223 -224 0
-223 -225 0
-224 -225 0
226 227 228 229 230 0
-226 -227 0
-226 -228 0
-226 -229 0
-226 -230 0
-227 -228 0
-227 -229 0
-227 -230 0
-228 -229 0
-228 -230 0
-229 -230 0
231 232 233 234 235 0
-231 -232 0
-231 -233 0
-231 -234 0
-231 -235 0
-232 -233 0
-232 -234 0
-232 -235 0
-233 -234 0
-233 -235 0
-234 -235 0
236 237 238 239 240 0
-236 -237 0
-236 -238 0
-236 -239 0
-236 -240 0
-237 -238 0
-237 -239 0
-237 -240 0
-238 -239 0
-238 -240 0
-239 -240 0
241 242 243 244 245 0
-241 -242 0
-241 -243 0
-241 -244 0
-241 -245 0
-242 -243 0
-242 -244 0
-242 -245 0
-243 -244 0
-243 -245 0
-244 -245 0
246 247 248 249 250 0
-246 -247 0
-246 -248 0
-246 -249 0
-246 -250 0
-247 -248 0
-247 -249 0
-247 -250 0
-248 -249 0
-248 -250 0
-249 -250 0
251 252 253 254 255 0
-251 -252 0
-251 -253 0
-251 -254 0
-251 -255 0
-252 -253 0
-252 -254 0
-252 -255 0
-253 -254 0
-253 -255 0
-254 -255 0
256 257 258 259 260 0
-256 -257 0
-256 -258 0
-256 -259 0
-256 -260 0
-257 -258 0
-257 -259 0
-257 -260 0
-258 -259 0
-258 -260 0
-259 -260 0
261 262 263 264 265 0
-261 -262 0
-261 -263 0
-261 -264 0
-261 -265 0
-262 -263 0
-262 -264 0
-262 -265 0
-263 -264 0
-263 -265 0
-264 -265 0
266 267 268 269 270 0
-266 -267 0
-266 -268 0
-266 -269 0
-266 -270 0
-267 -268 0
-267 -269 0
-267 -270 0
-268 -269 0
-268 -270 0
-269 -270 0
271 272 273 274 275 0
-271 -272 0
-271 -273 0
-271 -274 0
-271 -275 0
-272 -273 0
-272 -274 0
-272 -275 0
-273 -274 0
-273 -275 0
-274 -275 0
276 277 278 279 280 0
-276 -277 0
-276 -278 0
-276 -279 0
-276 -280 0
-277 -278 0
-277 -279 0
-277 -280 0
-278 -279 0
-278 -280 0
-279 -280 0
281 282 283 284 285 0
-281 -282 0
-281 -283 0
-281 -284 0
-281 -285 0
-282 -283 0
-282 -284 0
-282 -285 0
-283 -284 0
-283 -285 0
-284 -285 0
286 287 288 289 290 0
-286 -287 0
-286 -288 0
-286 -289 0
-286 -290 0
-287 -288 0
-287 -289 0
-287 -290 0
-288 -289 0
-288 -290 0
-289 -290 0
291 292 293 294 295 0
-291 -292 0
-291 -293 0
-291 -294 0
-291 -295 0
-292 -293 0
-292 -294 0
-292 -295 0
-293 -294 0
-293 -295 0
-294 -295 0
296 297 298 299 300 0
-296 -297 0
-296 -298 0
-296 -299 0
-296 -300 0
-297 -298 0
-297 -299 0
-297 -300 0
-298 -299 0
-298 -300 0
-299 -300 0
301 302 303 304 305 0
-301 -302 0
-301 -303 0
-301 -304 0
-301 -305 0
-302 -303 0
-302 -304 0
-302 -305 0
-303 -304 0
-303 -305 0
-304 -305 0
306 307 308 309 310 0
-306 -307 0
-306 -308 0
-306 -309 0
-306 -310 0
-307 -308 0
-307 -309 0
-307 -310 0
-308 -309 0
-308 -310 0
-309 -310 0
311 312 313 314 315 0
-311 -312 0
-311 -313 0
-311 -314 0
-311 -315 0
-312 -313 0
-312 -314 0
-312 -315 0
-313 -314 0
-313 -315 0
-314 -315 0
316 317 318 319 320 0
-316 -317 0
-316 -318 0
-316 -319 0
-316 -320 0
-317 -318 0
-317 -319 0
-317 -320 0
-318 -319 0
-318 -320 0
-319 -320 0
321 322 323 324 325 0
-321 -322 0
-321 -323 0
-321 -324 0
-321 -325 0
-322 -323 0
-322 -324 0
-322 -325 0
-323 -324 0
-323 -325 0
-324 -325 0
326 327 328 329 330 0
-326 -327 0
-326 -328 0
-326 -329 0
-326 -330 0
-327 -328 0
-327 -329 0
-327 -330 0
-328 -329 0
-328 -330 0
-329 -330 0
331 332 333 334 335 0
-331 -332 0
-331 -333 0
-331 -334 0
-331 -335 0
-332 -333 0
-332 -334 0
-332 -335 0
-333 -334 0
-333 -335 0
-334 -335 0
336 337 338 339 340 0
-336 -337 0
-336 -338 0
-336 -339 0
-336 -340 0
-337 -338 0
-337 -339 0
-337 -340 0
-338 -339 0
-338 -340 0
-339 -340 0
341 342 343 344 345 0
-341 -342 0
-341 -343 0
-341 -344 0
-341 -345 0
-342 -343 0
-342 -344 0
-342 -345 0
-343 -344 0
-343 -345 0
-344 -345 0
346 347 348 349 350 0
-346 -347 0
-346 -348 0
-346 -349 0
-346 -350 0
-347 -348 0
-347 -349 0
-347 -350 0
-348 -349 0
-348 -350 0
-349 -350 0
351 352 353 354 355 0
-351 -352 0
-351 -353 0
-351 -354 0
-351 -355 0
-352 -353 0
-352 -354 0
-352 -355 0
-353 -354 0
-353 -355 0
-354 -355 0
356 357 358 359 360 0
-356 -357 0
-356 -358 0
-356 -359 0
-356 -360 0
-357 -358 0
-357 -359 0
-357 -360 0
-358 -359 0
-358 -360 0
-359 -360 0
361 362 363 364 365 0
-361 -362 0
-361 -363 0
-361 -364 0
-361 -365 0
-362 -363 0
-362 -364 0
-362 -365 0
-363 -364 0
-363 -365 0
-364 -365 0
366 367 368 369 370 0
-366 -367 0
-366 -368 0
-366 -369 0
-366 -370 0
-367 -368 0
-367 -369 0
-367 -370 0
-368 -369 0
-368 -370 0
-369 -370 0
371 372 373 374 375 0
-371 -372 0
-371 -373 0
-371 -374 0
-371 -375 0
-372 -373 0
-372 -374 0
-372 -375 0
-373 -374 0
-373 -375 0
-374 -375 0
376 377 378 379 380 0
-376 -377 0
-376 -378 0
-376 -379 0
-376 -380 0
-377 -378 0
-377 -379 0
-377 -380 0
-378 -379 0
-378 -380 0
-379 -380 0
381 382 383 384 385 0
-381 -382 0
-381 -383 0
-381 -384 0
-381 -385 0
-382 -383 0
-382 -384 0
-382 -385 0
-383 -384 0
-383 -385 0
-384 -385 0
386 387 388 389 390 0
-386 -387 0
-386 -388 0
-386 -389 0
-386 -390 0
-387 -388 0
-387 -389 0
-387 -390 0
-388 -389 0
-388 -390 0
-389 -390 0
391 392 393 394 395 0
-391 -392 0
-391 -393 0
-391 -394 0
-391 -395 0
-392 -393 0
-392 -394 0
-392 -395 0
-393 -394 0
-393 -395 0
-394 -395 0
396 397 398 399 400 0
-396 -397 0
-396 -398 0
-396 -399 0
-396 -400 0
-397 -398 0
-397 -399 0
-397 -400 0
-398 -399 0
-398 -400 0
-399 -400 0
401 402 403 404 405 0
-401 -402 0
-401 -403 0
-401 -404 0
-401 -405 0
-402 -403 0
-402 -404 0
-402 -405 0
-403 -404 0
-403 -405 0
-404 -405 0
406 407 408 409 410 0
-406 -407 0
-406 -408 0
-406 -409 0
-406 -410 0
-407 -408 0
-407 -409 0
-407 -410 0
-408 -409 0
-408 -410 0
-409 -410 0
411 412 413 414 415 0
-411 -412 0
-411 -413 0
-411 -414 0
-411 -415 0
-412 -413 0
-412 -414 0
-412 -415 0
-413 -414 0
-413 -415 0
-414 -415 0
416 417 418 419 420 0
-416 -417 0
-416 -418 0
-416 -419 0
-416 -420 0
-417 -418 0
-417 -419 0
-417 -420 0
-418 -419 0
-418 -420 0
-419 -420 0
421 422 423 424 425 0
-421 -422 0
-421 -423 0
-421 -424 0
-421 -425 0
-422 -423 0
-422 -424 0
-422 -425 0
-423 -424 0
-423 -425 0
-424 -425 0
426 427 428 429 430 0
-426 -427 0
-426 -428 0
-426 -429 0
-426 -430 0
-427 -428 0
-427 -429 0
-427 -430 0
-428 -429 0
-428 -430 0
-429 -430 0
431 432 433 434 435 0
-431 -432 0
-431 -433 0
-431 -434 0
-431 -435 0
-432 -433 0
-432 -434 0
-432 -435 0
-433 -434 0
-433 -435 0
-434 -435 0
436 437 438 439 440 0
-436 -437 0
-436 -438 0
-436 -439 0
-436 -440 0
-437 -438 0
-437 -439 0
-437 -440 0
-438 -439 0
-438 -440 0
-439 -440 0
441 442 443 444 445 0
-441 -442 0
-441 -443 0
-441 -444 0
-441 -445 0
-442 -443 0
-442 -444 0
-442 -445 0
-443 -444 0
-443 -445 0
-444 -445 0
446 447 448 449 450 0
-446 -447 0
-446 -448 0
-446 -449 0
-446 -450 0
-447 -448 0
-447 -449 0
-447 -450 0
-448 -449 0
-448 -450 0
-449 -450 0
451 452 453 454 455 0
-451 -452 0
-451 -453 0
-451 -454 0
-451 -455 0
-452 -453 0
-452 -454 0
-452 -455 0
-453 -454 0
-453 -455 0
-454 -455 0
456 457 458 459 460 0
-456 -457 0
-456 -458 0
-456 -459 0
-456 -460 0
-457 -458 0
-457 -459 0
-457 -460 0
-458 -459 0
-458 -460 0
-459 -460 0
461 462 463 464 465 0
-461 -462 0
-461 -463 0
-461 -464 0
-461 -465 0
-462 -463 0
-462 -464 0
-462 -465 0
-463 -464 0
-463 -465 0
-464 -465 0
466 467 468 469 470 0
-466 -467 0
-466 -468 0
-466 -469 0
-466 -470 0
-467 -468 0
-467 -469 0
-467 -470 0
-468 -469 0
-468 -470 0
-469 -470 0
471 472 473 474 475 0
-471 -472 0
-471 -473 0
-471 -474 0
-471 -475 0
-472 -473 0
-472 -474 0
-472 -475 0
-473 -474 0
-473 -475 0
-474 -475 0
476 477 478 479 480 0
-476 -477 0
-476 -478 0
-476 -479 0
-476 -480 0
-477 -478 0
-477 -479 0
-477 -480 0
-478 -479 0
-478 -480 0
-479 -480 0
481 482 483 484 485 0
-481 -482 0
-481 -483 0
-481 -484 0
-481 -485 0
-482 -483 0
-482 -484 0
-482 -485 0
-483 -484 0
-483 -485 0
-484 -485 0
486 487 488 489 490 0
-486 -487 0
-486 -488 0
-486 -489 0
-486 -490 0
-487 -488 0
-487 -489 0
-487 -490 0
-488 -489 0
-488 -490 0
-489 -490 0
491 492 493 494 495 0
-491 -492 0
-491 -493 0
-491 -494 0
-491 -495 0
-492 -493 0
-492 -494 0
-492 -495 0
-493 -494 0
-493 -495 0
-494 -495 0
496 497 498 499 500 0
-496 -497 0
-496 -498 0
-496 -499 0
-496 -500 0
-497 -498 0
-497 -499 0
-497 -500 0
-498 -499 0
-498 -500 0
-499 -500 0
501 502 503 504 505 0
-501 -502 0
-501 -503 0
-501 -504 0
-501 -505 0
-502 -503 0
-502 -504 0
-502 -505 0
-503 -504 0
-503 -505 0
-504 -505 0
506 507 508 509 510 0
-506 -507 0
-506 -508 0
-506 -509 0
-506 -510 0
-507 -508 0
-507 -509 0
-507 -510 0
-508 -509 0
-508 -510 0
-509 -510 0
511 512 513 514 515 0
-511 -512 0
-511 -513 0
-511 -514 0
-511 -515 0
-512 -513 0
-512 -514 0
-512 -515 0
-513 -514 0
-513 -515 0
-514 -515 0
516 517 518 519 520 0
-516 -517 0
-516 -518 0
-516 -519 0
-516 -520 0
-517 -518 0
-517 -519 0
-517 -520 0
-518 -519 0
-518 -520 0
-519 -520 0
521 522 523 524 525 0
-521 -522 0
-521 -523 0
-521 -524 0
-521 -525 0
-522 -523 0
-522 -524 0
-522 -525 0
-523 -524 0
-523 -525 0
-524 -525 0
526 527 528 529 530 0
-526 -527 0
-526 -528 0
-526 -529 0
-526 -530 0
-527 -528 0
-527 -529 0
-527 -530 0
-528 -529 0
-528 -530 0
-529 -530 0
531 532 533 534 535 0
-531 -532 0
-531 -533 0
-531 -534 0
-531 -535 0
-532 -533 0
-532 -534 0
-532 -535 0
-533 -534 0
-533 -535 0
-534 -535 0
536 537 538 539 540 0
-536 -537 0
-536 -538 0
-536 -539 0
-536 -540 0
-537 -538 0
-537 -539 0
-537 -540 0
-538 -539 0
-538 -540 0
-539 -540 0
541 542 543 544 545 0
-541 -542 0
-541 -543 0
-541 -544 0
-541 -545 0
-542 -543 0
-542 -544 0
-542 -545 0
-543 -544 0
-543 -545 0
-544 -545 0
546 547 548 549 550 0
-546 -547 0
-546 -548 0
-546 -549 0
-546 -550 0
-547 -548 0
-547 -549 0
-547 -550 0
-548 -549 0
-548 -550 0
-549 -550 0
551 552 553 554 555 0
-551 -552 0
-551 -553 0
-551 -554 0
-551 -555 0
-552 -553 0
-552 -554 0
-552 -555 0
-553 -554 0
-553 -555 0
-554 -555 0
-1 -21 0
-2 -22 0
-3 -23 0
-4 -24 0
-5 -25 0
-1 -31 0
-2 -32 0
-3 -33 0
-4 -34 0
-5 -35 0
-1 -436 0
-2 -437 0
-3 -438 0
-4 -439 0
-5 -440 0
-6 -21 0
-7 -22 0
-8 -23 0
-9 -24 0
-10 -25 0
-6 -26 0
-7 -27 0
-8 -28 0
-9 -29 0
-10 -30 0
-6 -46 0
-7 -47 0
-8 -48 0
-9 -49 0
-10 -50 0
-6 -51 0
-7 -52 0
-8 -53 0
-9 -54 0
-10 -55 0
-6 -66 0
-7 -67 0
-8 -68 0
-9 -69 0
-10 -70 0
-6 -81 0
-7 -82 0
-8 -83 0
-9 -84 0
-10 -85 0
-6 -91 0
-7 -92 0
-8 -93 0
-9 -94 0
-10 -95 0
-6 -176 0
-7 -177 0
-8 -178 0
-9 -179 0
-10 -180 0
-6 -181 0
-7 -182 0
-8 -183 0
-9 -184 0
-10 -185 0
-6 -221 0
-7 -222 0
-8 -223 0
-9 -224 0
-10 -225 0
-6 -226 0
-7 -227 0
-8 -228 0
-9 -229 0
-10 -230 0
-6 -236 0
-7 -237 0
-8 -238 0
-9 -239 0
-10 -240 0
-6 -271 0
-7 -272 0
-8 -273 0
-9 -274 0
-10 -275 0
-6 -276 0
-7 -277 0
-8 -278 0
-9 -279 0
-10 -280 0
-6 -331 0
-7 -332 0
-8 -333 0
-9 -334 0
-10 -335 0
-6 -336 0
-7 -337 0
-8 -338 0
-9 -339 0
-10 -340 0
-6 -346 0
-7 -347 0
-8 -348 0
-9 -349 0
-10 -350 0
-6 -451 0
-7 -452 0
-8 -453 0
-9 -454 0
-10 -455 0
-6 -486 0
-7 -487 0
-8 -488 0
-9 -489 0
-10 -490 0
-6 -526 0
-7 -527 0
-8 -528 0
-9 -529 0
-10 -530 0
-11 -21 0
-12 -22 0
-13 -23 0
-14 -24 0
-15 -25 0
-11 -26 0
-12 -27 0
-13 -28 0
-14 -29 0
-15 -30 0
-11 -31 0
-12 -32 0
-13 -33 0
-14 -34 0
-15 -35 0
-11 -36 0
-12 -37 0
-13 -38 0
-14 -39 0
-15 -40 0
-11 -46 0
-12 -47 0
-13 -48 0
-14 -49 0
-15 -50 0
-11 -66 0
-12 -67 0
-13 -68 0
-14 -69 0
-15 -70 0
-11 -71 0
-12 -72 0
-13 -73 0
-14 -74 0
-15 -75 0
-11 -76 0
-12 -77 0
-13 -78 0
-14 -79 0
-15 -80 0
-11 -86 0
-12 -87 0
-13 -88 0
-14 -89 0
-15 -90 0
-11 -91 0
-12 -92 0
-13 -93 0
-14 -94 0
-15 -95 0
-11 -96 0
-12 -97 0
-13 -98 0
-14 -99 0
-15 -100 0
-11 -101 0
-12 -102 0
-13 -103 0
-14 -104 0
-15 -105 0
-11 -106 0
-12 -107 0
-13 -108 0
-14 -109 0
-15 -110 0
-11 -116 0
-12 -117 0
-13 -118 0
-14 -119 0
-15 -120 0
-11 -156 0
-12 -157 0
-13 -158 0
-14 -159 0
-15 -160 0
-11 -166 0
-12 -167 0
-13 -168 0
-14 -169 0
-15 -170 0
-11 -186 0
-12 -187 0
-13 -188 0
-14 -189 0
-15 -190 0
-11 -216 0
-12 -217 0
-13 -218 0
-14 -219 0
-15 -220 0
-11 -231 0
-12 -232 0
-13 -233 0
-14 -234 0
-15 -235 0
-11 -296 0
-12 -297 0
-13 -298 0
-14 -299 0
-15 -300 0
-11 -326 0
-12 -327 0
-13 -328 0
-14 -329 0
-15 -330 0
-11 -411 0
-12 -412 0
-13 -413 0
-14 -414 0
-15 -415 0
-11 -481 0
-12 -482 0
-13 -483 0
-14 -484 0
-15 -485 0
-11 -511 0
-12 -512 0
-13 -513 0
-14 -514 0
-15 -515 0
-11 -516 0
-12 -517 0
-13 -518 0
-14 -519 0
-15 -520 0
-11 -536 0
-12 -537 0
-13 -538 0
-14 -539 0
-15 -540 0
-11 -551 0
-12 -552 0
-13 -553 0
-14 -554 0
-15 -555 0
-16 -21 0
-17 -22 0
-18 -23 0
-19 -24 0
-20 -25 0
-16 -26 0
-17 -27 0
-18 -28 0
-19 -29 0
-20 -30 0
-16 -31 0
-17 -32 0
-18 -33 0
-19 -34 0
-20 -35 0
-16 -41 0
-17 -42 0
-18 -43 0
-19 -44 0
-20 -45 0
-16 -46 0
-17 -47 0
-18 -48 0
-19 -49 0
-20 -50 0
-16 -56 0
-17 -57 0
-18 -58 0
-19 -59 0
-20 -60 0
-16 -61 0
-17 -62 0
-18 -63 0
-19 -64 0
-20 -65 0
-16 -86 0
-17 -87 0
-18 -88 0
-19 -89 0
-20 -90 0
-16 -126 0
-17 -127 0
-18 -128 0
-19 -129 0
-20 -130 0
-16 -131 0
-17 -132 0
-18 -133 0
-19 -134 0
-20 -135 0
-16 -176 0
-17 -177 0
-18 -178 0
-19 -179 0
-20 -180 0
-16 -186 0
-17 -187 0
-18 -188 0
-19 -189 0
-20 -190 0
-16 -206 0
-17 -207 0
-18 -208 0
-19 -209 0
-20 -210 0
-16 -221 0
-17 -222 0
-18 -223 0
-19 -224 0
-20 -225 0
-16 -246 0
-17 -247 0
-18 -248 0
-19 -249 0
-20 -250 0
-16 -301 0
-17 -302 0
-18 -303 0
-19 -304 0
-20 -305 0
-16 -351 0
-17 -352 0
-18 -353 0
-19 -354 0
-20 -355 0
-16 -421 0
-17 -422 0
-18 -423 0
-19 -424 0
-20 -425 0
-16 -471 0
-17 -472 0
-18 -473 0
-19 -474 0
-20 -475 0
-21 -26 0
-22 -27 0
-23 -28 0
-24 -29 0
-25 -30 0
-21 -36 0
-22 -37 0
-23 -38 0
-24 -39 0
-25 -40 0
-21 -41 0
-22 -42 0
-23 -43 0
-24 -44 0
-25 -45 0
-21 -56 0
-22 -57 0
-23 -58 0
-24 -59 0
-25 -60 0
-21 -81 0
-22 -82 0
-23 -83 0
-24 -84 0
-25 -85 0
-21 -121 0
-22 -122 0
-23 -123 0
-24 -124 0
-25 -125 0
-21 -141 0
-22 -142 0
-23 -143 0
-24 -144 0
-25 -145 0
-21 -146 0
-22 -147 0
-23 -148 0
-24 -149 0
-25 -150 0
-21 -151 0
-22 -152 0
-23 -153 0
-24 -154 0
-25 -155 0
-21 -161 0
-22 -162 0
-23 -163 0
-24 -164 0
-25 -165 0
-21 -196 0
-22 -197 0
-23 -198 0
-24 -199 0
-25 -200 0
-21 -206 0
-22 -207 0
-23 -208 0
-24 -209 0
-25 -210 0
-21 -216 0
-22 -217 0
-23 -218 0
-24 -219 0
-25 -220 0
-21 -251 0
-22 -252 0
-23 -253 0
-24 -254 0
-25 -255 0
-21 -261 0
-22 -262 0
-23 -263 0
-24 -264 0
-25 -265 0
-21 -286 0
-22 -287 0
-23 -288 0
-24 -289 0
-25 -290 0
-21 -331 0
-22 -332 0
-23 -333 0
-24 -334 0
-25 -335 0
-21 -386 0
-22 -387 0
-23 -388 0
-24 -389 0
-25 -390 0
-21 -491 0
-22 -492 0
-23 -493 0
-24 -494 0
-25 -495 0
-21 -496 0
-22 -497 0
-23 -498 0
-24 -499 0
-25 -500 0
-26 -31 0
-27 -32 0
-28 -33 0
-29 -34 0
-30 -35 0
-26 -36 0
-27 -37 0
-28 -38 0
-29 -39 0
-30 -40 0
-26 -41 0
-27 -42 0
-28 -43 0
-29 -44 0
-30 -45 0
-26 -46 0
-27 -47 0
-28 -48 0
-29 -49 0
-30 -50 0
-26 -51 0
-27 -52 0
-28 -53 0
-29 -54 0
-30 -55 0
-26 -56 0
-27 -57 0
-28 -58 0
-29 -59 0
-30 -60 0
-26 -61 0
-27 -62 0
-28 -63 0
-29 -64 0
-30 -65 0
-26 -66 0
-27 -67 0
-28 -68 0
-29 -69 0
-30 -70 0
-26 -76 0
-27 -77 0
-28 -78 0
-29 -79 0
-30 -80 0
-26 -81 0
-27 -82 0
-28 -83 0
-29 -84 0
-30 -85 0
-26 -111 0
-27 -112 0
-28 -113 0
-29 -114 0
-30 -115 0
-26 -116 0
-27 -117 0
-28 -118 0
-29 -119 0
-30 -120 0
-26 -121 0
-27 -122 0
-28 -123 0
-29 -124 0
-30 -125 0
-26 -126 0
-27 -127 0
-28 -128 0
-29 -129 0
-30 -130 0
-26 -131 0
-27 -132 0
-28 -133 0
-29 -134 0
-30 -135 0
-26 -141 0
-27 -142 0
-28 -143 0
-29 -144 0
-30 -145 0
-26 -146 0
-27 -147 0
-28 -148 0
-29 -149 0
-30 -150 0
-26 -151 0
-27 -152 0
-28 -153 0
-29 -154 0
-30 -155 0
-26 -161 0
-27 -162 0
-28 -163 0
-29 -164 0
-30 -165 0
-26 -176 0
-27 -177 0
-28 -178 0
-29 -179 0
-30 -180 0
-26 -186 0
-27 -187 0
-28 -188 0
-29 -189 0
-30 -190 0
-26 -191 0
-27 -192 0
-28 -193 0
-29 -194 0
-30 -195 0
-26 -221 0
-27 -222 0
-28 -223 0
-29 -224 0
-30 -225 0
-26 -246 0
-27 -247 0
-28 -248 0
-29 -249 0
-30 -250 0
-26 -256 0
-27 -257 0
-28 -258 0
-29 -259 0
-30 -260 0
-26 -271 0
-27 -272 0
-28 -273 0
-29 -274 0
-30 -275 0
-26 -286 0
-27 -287 0
-28 -288 0
-29 -289 0
-30 -290 0
-26 -306 0
-27 -307 0
-28 -308 0
-29 -309 0
-30 -310 0
-26 -316 0
-27 -317 0
-28 -318 0
-29 -319 0
-30 -320 0
-26 -366 0
-27 -367 0
-28 -368 0
-29 -369 0
-30 -370 0
-26 -396 0
-27 -397 0
-28 -398 0
-29 -399 0
-30 -400 0
-26 -516 0
-27 -517 0
-28 -518 0
-29 -519 0
-30 -520 0
-26 -521 0
-27 -522 0
-28 -523 0
-29 -524 0
-30 -525 0
-26 -531 0
-27 -532 0
-28 -533 0
-29 -534 0
-30 -535 0
-31 -36 0
-32 -37 0
-33 -38 0
-34 -39 0
-35 -40 0
-31 -51 0
-32 -52 0
-33 -53 0
-34 -54 0
-35 -55 0
-31 -61 0
-32 -62 0
-33 -63 0
-34 -64 0
-35 -65 0
-31 -101 0
-32 -102 0
-33 -103 0
-34 -104 0
-35 -105 0
-31 -111 0
-32 -112 0
-33 -113 0
-34 -114 0
-35 -115 0
-31 -136 0
-32 -137 0
-33 -138 0
-34 -139 0
-35 -140 0
-31 -146 0
-32 -147 0
-33 -148 0
-34 -149 0
-35 -150 0
-31 -176 0
-32 -177 0
-33 -178 0
-34 -179 0
-35 -180 0
-31 -181 0
-32 -182 0
-33 -183 0
-34 -184 0
-35 -185 0
-31 -201 0
-32 -202 0
-33 -203 0
-34 -204 0
-35 -205 0
-31 -241 0
-32 -242 0
-33 -243 0
-34 -244 0
-35 -245 0
-31 -551 0
-32 -552 0
-33 -553 0
-34 -554 0
-35 -555 0
-36 -41 0
-37 -42 0
-38 -43 0
-39 -44 0
-40 -45 0
-36 -51 0
-37 -52 0
-38 -53 0
-39 -54 0
-40 -55 0
-36 -61 0
-37 -62 0
-38 -63 0
-39 -64 0
-40 -65 0
-36 -71 0
-37 -72 0
-38 -73 0
-39 -74 0
-40 -75 0
-36 -76 0
-37 -77 0
-38 -78 0
-39 -79 0
-40 -80 0
-36 -86 0
-37 -87 0
-38 -88 0
-39 -89 0
-40 -90 0
-36 -96 0
-37 -97 0
-38 -98 0
-39 -99 0
-40 -100 0
-36 -141 0
-37 -142 0
-38 -143 0
-39 -144 0
-40 -145 0
-36 -156 0
-37 -157 0
-38 -158 0
-39 -159 0
-40 -160 0
-36 -166 0
-37 -167 0
-38 -168 0
-39 -169 0
-40 -170 0
-36 -181 0
-37 -182 0
-38 -183 0
-39 -184 0
-40 -185 0
-36 -226 0
-37 -227 0
-38 -228 0
-39 -229 0
-40 -230 0
-36 -266 0
-37 -267 0
-38 -268 0
-39 -269 0
-40 -270 0
-36 -271 0
-37 -272 0
-38 -273 0
-39 -274 0
-40 -275 0
-36 -276 0
-37 -277 0
-38 -278 0
-39 -279 0
-40 -280 0
-36 -291 0
-37 -292 0
-38 -293 0
-39 -294 0
-40 -295 0
-36 -311 0
-37 -312 0
-38 -313 0
-39 -314 0
-40 -315 0
-36 -316 0
-37 -317 0
-38 -318 0
-39 -319 0
-40 -320 0
-36 -386 0
-37 -387 0
-38 -388 0
-39 -389 0
-40 -390 0
-36 -416 0
-37 -417 0
-38 -418 0
-39 -419 0
-40 -420 0
-41 -56 0
-42 -57 0
-43 -58 0
-44 -59 0
-45 -60 0
-41 -66 0
-42 -67 0
-43 -68 0
-44 -69 0
-45 -70 0
-41 -141 0
-42 -142 0
-43 -143 0
-44 -144 0
-45 -145 0
-41 -256 0
-42 -257 0
-43 -258 0
-44 -259 0
-45 -260 0
-41 -531 0
-42 -532 0
-43 -533 0
-44 -534 0
-45 -535 0
-46 -206 0
-47 -207 0
-48 -208 0
-49 -209 0
-50 -210 0
-46 -291 0
-47 -292 0
-48 -293 0
-49 -294 0
-50 -295 0
-46 -306 0
-47 -307 0
-48 -308 0
-49 -309 0
-50 -310 0
-46 -336 0
-47 -337 0
-48 -338 0
-49 -339 0
-50 -340 0
-46 -441 0
-47 -442 0
-48 -443 0
-49 -444 0
-50 -445 0
-46 -546 0
-47 -547 0
-48 -548 0
-49 -549 0
-50 -550 0
-51 -106 0
-52 -107 0
-53 -108 0
-54 -109 0
-55 -110 0
-51 -111 0
-52 -112 0
-53 -113 0
-54 -114 0
-55 -115 0
-51 -126 0
-52 -127 0
-53 -128 0
-54 -129 0
-55 -130 0
-51 -211 0
-52 -212 0
-53 -213 0
-54 -214 0
-55 -215 0
-51 -231 0
-52 -232 0
-53 -233 0
-54 -234 0
-55 -235 0
-51 -256 0
-52 -257 0
-53 -258 0
-54 -259 0
-55 -260 0
-51 -266 0
-52 -267 0
-53 -268 0
-54 -269 0
-55 -270 0
-51 -361 0
-52 -362 0
-53 -363 0
-54 -364 0
-55 -365 0
-51 -401 0
-52 -402 0
-53 -403 0
-54 -404 0
-55 -405 0
-51 -411 0
-52 -412 0
-53 -413 0
-54 -414 0
-55 -415 0
-51 -506 0
-52 -507 0
-53 -508 0
-54 -509 0
-55 -510 0
-56 -71 0
-57 -72 0
-58 -73 0
-59 -74 0
-60 -75 0
-56 -121 0
-57 -122 0
-58 -123 0
-59 -124 0
-60 -125 0
-56 -156 0
-57 -157 0
-58 -158 0
-59 -159 0
-60 -160 0
-56 -206 0
-57 -207 0
-58 -208 0
-59 -209 0
-60 -210 0
-56 -281 0
-57 -282 0
-58 -283 0
-59 -284 0
-60 -285 0
-56 -551 0
-57 -552 0
-58 -553 0
-59 -554 0
-60 -555 0
-61 -71 0
-62 -72 0
-63 -73 0
-64 -74 0
-65 -75 0
-61 -76 0
-62 -77 0
-63 -78 0
-64 -79 0
-65 -80 0
-61 -86 0
-62 -87 0
-63 -88 0
-64 -89 0
-65 -90 0
-61 -91 0
-62 -92 0
-63 -93 0
-64 -94 0
-65 -95 0
-61 -126 0
-62 -127 0
-63 -128 0
-64 -129 0
-65 -130 0
-61 -331 0
-62 -332 0
-63 -333 0
-64 -334 0
-65 -335 0
-61 -346 0
-62 -347 0
-63 -348 0
-64 -349 0
-65 -350 0
-61 -386 0
-62 -387 0
-63 -388 0
-64 -389 0
-65 -390 0
-61 -476 0
-62 -477 0
-63 -478 0
-64 -479 0
-65 -480 0
-61 -501 0
-62 -502 0
-63 -503 0
-64 -504 0
-65 -505 0
-61 -526 0
-62 -527 0
-63 -528 0
-64 -529 0
-65 -530 0
-66 -151 0
-67 -152 0
-68 -153 0
-69 -154 0
-70 -155 0
-66 -171 0
-67 -172 0
-68 -173 0
-69 -174 0
-70 -175 0
-66 -336 0
-67 -337 0
-68 -338 0
-69 -339 0
-70 -340 0
-66 -356 0
-67 -357 0
-68 -358 0
-69 -359 0
-70 -360 0
-66 -431 0
-67 -432 0
-68 -433 0
-69 -434 0
-70 -435 0
-66 -496 0
-67 -497 0
-68 -498 0
-69 -499 0
-70 -500 0
-66 -531 0
-67 -532 0
-68 -533 0
-69 -534 0
-70 -535 0
-66 -541 0
-67 -542 0
-68 -543 0
-69 -544 0
-70 -545 0
-66 -551 0
-67 -552 0
-68 -553 0
-69 -554 0
-70 -555 0
-71 -81 0
-72 -82 0
-73 -83 0
-74 -84 0
-75 -85 0
-71 -91 0
-72 -92 0
-73 -93 0
-74 -94 0
-75 -95 0
-71 -96 0
-72 -97 0
-73 -98 0
-74 -99 0
-75 -100 0
-71 -106 0
-72 -107 0
-73 -108 0
-74 -109 0
-75 -110 0
-71 -131 0
-72 -132 0
-73 -133 0
-74 -134 0
-75 -135 0
-71 -151 0
-72 -152 0
-73 -153 0
-74 -154 0
-75 -155 0
-71 -161 0
-72 -162 0
-73 -163 0
-74 -164 0
-75 -165 0
-71 -166 0
-72 -167 0
-73 -168 0
-74 -169 0
-75 -170 0
-71 -171 0
-72 -172 0
-73 -173 0
-74 -174 0
-75 -175 0
-71 -191 0
-72 -192 0
-73 -193 0
-74 -194 0
-75 -195 0
-71 -236 0
-72 -237 0
-73 -238 0
-74 -239 0
-75 -240 0
-71 -246 0
-72 -247 0
-73 -248 0
-74 -249 0
-75 -250 0
-71 -341 0
-72 -342 0
-73 -343 0
-74 -344 0
-75 -345 0
-71 -356 0
-72 -357 0
-73 -358 0
-74 -359 0
-75 -360 0
-71 -416 0
-72 -417 0
-73 -418 0
-74 -419 0
-75 -420 0
-71 -421 0
-72 -422 0
-73 -423 0
-74 -424 0
-75 -425 0
-71 -481 0
-72 -482 0
-73 -483 0
-74 -484 0
-75 -485 0
-71 -546 0
-72 -547 0
-73 -548 0
-74 -549 0
-75 -550 0
-76 -101 0
-77 -102 0
-78 -103 0
-79 -104 0
-80 -105 0
-76 -106 0
-77 -107 0
-78 -108 0
-79 -109 0
-80 -110 0
-76 -111 0
-77 -112 0
-78 -113 0
-79 -114 0
-80 -115 0
-76 -116 0
-77 -117 0
-78 -118 0
-79 -119 0
-80 -120 0
-76 -121 0
-77 -122 0
-78 -123 0
-79 -124 0
-80 -125 0
-76 -251 0
-77 -252 0
-78 -253 0
-79 -254 0
-80 -255 0
-76 -301 0
-77 -302 0
-78 -303 0
-79 -304 0
-80 -305 0
-76 -351 0
-77 -352 0
-78 -353 0
-79 -354 0
-80 -355 0
-76 -446 0
-77 -447 0
-78 -448 0
-79 -449 0
-80 -450 0
-76 -451 0
-77 -452 0
-78 -453 0
-79 -454 0
-80 -455 0
-76 -491 0
-77 -492 0
-78 -493 0
-79 -494 0
-80 -495 0
-81 -246 0
-82 -247 0
-83 -248 0
-84 -249 0
-85 -250 0
-81 -331 0
-82 -332 0
-83 -333 0
-84 -334 0
-85 -335 0
-81 -456 0
-82 -457 0
-83 -458 0
-84 -459 0
-85 -460 0
-86 -96 0
-87 -97 0
-88 -98 0
-89 -99 0
-90 -100 0
-86 -136 0
-87 -137 0
-88 -138 0
-89 -139 0
-90 -140 0
-86 -226 0
-87 -227 0
-88 -228 0
-89 -229 0
-90 -230 0
-86 -241 0
-87 -242 0
-88 -243 0
-89 -244 0
-90 -245 0
-86 -251 0
-87 -252 0
-88 -253 0
-89 -254 0
-90 -255 0
-86 -386 0
-87 -387 0
-88 -388 0
-89 -389 0
-90 -390 0
-86 -431 0
-87 -432 0
-88 -433 0
-89 -434 0
-90 -435 0
-86 -451 0
-87 -452 0
-88 -453 0
-89 -454 0
-90 -455 0
-86 -511 0
-87 -512 0
-88 -513 0
-89 -514 0
-90 -515 0
-91 -101 0
-92 -102 0
-93 -103 0
-94 -104 0
-95 -105 0
-91 -161 0
-92 -162 0
-93 -163 0
-94 -164 0
-95 -165 0
-91 -211 0
-92 -212 0
-93 -213 0
-94 -214 0
-95 -215 0
-91 -306 0
-92 -307 0
-93 -308 0
-94 -309 0
-95 -310 0
-91 -336 0
-92 -337 0
-93 -338 0
-94 -339 0
-95 -340 0
-91 -346 0
-92 -347 0
-93 -348 0
-94 -349 0
-95 -350 0
-91 -411 0
-92 -412 0
-93 -413 0
-94 -414 0
-95 -415 0
-91 -451 0
-92 -452 0
-93 -453 0
-94 -454 0
-95 -455 0
-91 -471 0
-92 -472 0
-93 -473 0
-94 -474 0
-95 -475 0
-91 -501 0
-92 -502 0
-93 -503 0
-94 -504 0
-95 -505 0
-91 -531 0
-92 -532 0
-93 -533 0
-94 -534 0
-95 -535 0
-96 -201 0
-97 -202 0
-98 -203 0
-99 -204 0
-100 -205 0
-96 -321 0
-97 -322 0
-98 -323 0
-99 -324 0
-100 -325 0
-96 -326 0
-97 -327 0
-98 -328 0
-99 -329 0
-100 -330 0
-96 -381 0
-97 -382 0
-98 -383 0
-99 -384 0
-100 -385 0
-96 -396 0
-97 -397 0
-98 -398 0
-99 -399 0
-100 -400 0
-96 -446 0
-97 -447 0
-98 -448 0
-99 -449 0
-100 -450 0
-96 -456 0
-97 -457 0
-98 -458 0
-99 -459 0
-100 -460 0
-101 -136 0
-102 -137 0
-103 -138 0
-104 -139 0
-105 -140 0
-106 -156 0
-107 -157 0
-108 -158 0
-109 -159 0
-110 -160 0
-106 -236 0
-107 -237 0
-108 -238 0
-109 -239 0
-110 -240 0
-106 -396 0
-107 -397 0
-108 -398 0
-109 -399 0
-110 -400 0
-106 -441 0
-107 -442 0
-108 -443 0
-109 -444 0
-110 -445 0
-106 -476 0
-107 -477 0
-108 -478 0
-109 -479 0
-110 -480 0
-111 -116 0
-112 -117 0
-113 -118 0
-114 -119 0
-115 -120 0
-111 -146 0
-112 -147 0
-113 -148 0
-114 -149 0
-115 -150 0
-111 -241 0
-112 -242 0
-113 -243 0
-114 -244 0
-115 -245 0
-111 -261 0
-112 -262 0
-113 -263 0
-114 -264 0
-115 -265 0
-111 -316 0
-112 -317 0
-113 -318 0
-114 -319 0
-115 -320 0
-111 -341 0
-112 -342 0
-113 -343 0
-114 -344 0
-115 -345 0
-111 -366 0
-112 -367 0
-113 -368 0
-114 -369 0
-115 -370 0
-111 -371 0
-112 -372 0
-113 -373 0
-114 -374 0
-115 -375 0
-111 -376 0
-112 -377 0
-113 -378 0
-114 -379 0
-115 -380 0
-111 -506 0
-112 -507 0
-113 -508 0
-114 -509 0
-115 -510 0
-111 -521 0
-112 -522 0
-113 -523 0
-114 -524 0
-115 -525 0
-116 -216 0
-117 -217 0
-118 -218 0
-119 -219 0
-120 -220 0
-116 -276 0
-117 -277 0
-118 -278 0
-119 -279 0
-120 -280 0
-116 -291 0
-117 -292 0
-118 -293 0
-119 -294 0
-120 -295 0
-121 -136 0
-122 -137 0
-123 -138 0
-124 -139 0
-125 -140 0
-121 -496 0
-122 -497 0
-123 -498 0
-124 -499 0
-125 -500 0
-126 -131 0
-127 -132 0
-128 -133 0
-129 -134 0
-130 -135 0
-126 -196 0
-127 -197 0
-128 -198 0
-129 -199 0
-130 -200 0
-126 -211 0
-127 -212 0
-128 -213 0
-129 -214 0
-130 -215 0
-126 -266 0
-127 -267 0
-128 -268 0
-129 -269 0
-130 -270 0
-126 -371 0
-127 -372 0
-128 -373 0
-129 -374 0
-130 -375 0
-126 -391 0
-127 -392 0
-128 -393 0
-129 -394 0
-130 -395 0
-126 -496 0
-127 -497 0
-128 -498 0
-129 -499 0
-130 -500 0
-131 -226 0
-132 -227 0
-133 -228 0
-134 -229 0
-135 -230 0
-131 -381 0
-132 -382 0
-133 -383 0
-134 -384 0
-135 -385 0
-136 -166 0
-137 -167 0
-138 -168 0
-139 -169 0
-140 -170 0
-136 -286 0
-137 -287 0
-138 -288 0
-139 -289 0
-140 -290 0
-141 -171 0
-142 -172 0
-143 -173 0
-144 -174 0
-145 -175 0
-141 -211 0
-142 -212 0
-143 -213 0
-144 -214 0
-145 -215 0
-141 -391 0
-142 -392 0
-143 -393 0
-144 -394 0
-145 -395 0
-146 -171 0
-147 -172 0
-148 -173 0
-149 -174 0
-150 -175 0
-146 -181 0
-147 -182 0
-148 -183 0
-149 -184 0
-150 -185 0
-146 -191 0
-147 -192 0
-148 -193 0
-149 -194 0
-150 -195 0
-146 -436 0
-147 -437 0
-148 -438 0
-149 -439 0
-150 -440 0
-146 -461 0
-147 -462 0
-148 -463 0
-149 -464 0
-150 -465 0
-146 -466 0
-147 -467 0
-148 -468 0
-149 -469 0
-150 -470 0
-151 -281 0
-152 -282 0
-153 -283 0
-154 -284 0
-155 -285 0
-151 -401 0
-152 -402 0
-153 -403 0
-154 -404 0
-155 -405 0
-151 -436 0
-152 -437 0
-153 -438 0
-154 -439 0
-155 -440 0
-156 -196 0
-157 -197 0
-158 -198 0
-159 -199 0
-160 -200 0
-156 -231 0
-157 -232 0
-158 -233 0
-159 -234 0
-160 -235 0
-156 -301 0
-157 -302 0
-158 -303 0
-159 -304 0
-160 -305 0
-161 -201 0
-162 -202 0
-163 -203 0
-164 -204 0
-165 -205 0
-161 -221 0
-162 -222 0
-163 -223 0
-164 -224 0
-165 -225 0
-161 -236 0
-162 -237 0
-163 -238 0
-164 -239 0
-165 -240 0
-161 -261 0
-162 -262 0
-163 -263 0
-164 -264 0
-165 -265 0
-161 -296 0
-162 -297 0
-163 -298 0
-164 -299 0
-165 -300 0
-161 -366 0
-162 -367 0
-163 -368 0
-164 -369 0
-165 -370 0
-161 -391 0
-162 -392 0
-163 -393 0
-164 -394 0
-165 -395 0
-161 -411 0
-162 -412 0
-163 -413 0
-164 -414 0
-165 -415 0
-166 -186 0
-167 -187 0
-168 -188 0
-169 -189 0
-170 -190 0
-166 -191 0
-167 -192 0
-168 -193 0
-169 -194 0
-170 -195 0
-166 -266 0
-167 -267 0
-168 -268 0
-169 -269 0
-170 -270 0
-166 -271 0
-167 -272 0
-168 -273 0
-169 -274 0
-170 -275 0
-166 -321 0
-167 -322 0
-168 -323 0
-169 -324 0
-170 -325 0
-166 -341 0
-167 -342 0
-168 -343 0
-169 -344 0
-170 -345 0
-176 -216 0
-177 -217 0
-178 -218 0
-179 -219 0
-180 -220 0
-176 -326 0
-177 -327 0
-178 -328 0
-179 -329 0
-180 -330 0
-176 -481 0
-177 -482 0
-178 -483 0
-179 -484 0
-180 -485 0
-181 -311 0
-182 -312 0
-183 -313 0
-184 -314 0
-185 -315 0
-186 -196 0
-187 -197 0
-188 -198 0
-189 -199 0
-190 -200 0
-186 -201 0
-187 -202 0
-188 -203 0
-189 -204 0
-190 -205 0
-186 -251 0
-187 -252 0
-188 -253 0
-189 -254 0
-190 -255 0
-186 -301 0
-187 -302 0
-188 -303 0
-189 -304 0
-190 -305 0
-186 -426 0
-187 -427 0
-188 -428 0
-189 -429 0
-190 -430 0
-186 -431 0
-187 -432 0
-188 -433 0
-189 -434 0
-190 -435 0
-186 -446 0
-187 -447 0
-188 -448 0
-189 -449 0
-190 -450 0
-186 -456 0
-187 -457 0
-188 -458 0
-189 -459 0
-190 -460 0
-186 -471 0
-187 -472 0
-188 -473 0
-189 -474 0
-190 -475 0
-191 -231 0
-192 -232 0
-193 -233 0
-194 -234 0
-195 -235 0
-191 -261 0
-192 -262 0
-193 -263 0
-194 -264 0
-195 -265 0
-191 -521 0
-192 -522 0
-193 -523 0
-194 -524 0
-195 -525 0
-196 -351 0
-197 -352 0
-198 -353 0
-199 -354 0
-200 -355 0
-196 -466 0
-197 -467 0
-198 -468 0
-199 -469 0
-200 -470 0
-196 -506 0
-197 -507 0
-198 -508 0
-199 -509 0
-200 -510 0
-196 -526 0
-197 -527 0
-198 -528 0
-199 -529 0
-200 -530 0
-201 -281 0
-202 -282 0
-203 -283 0
-204 -284 0
-205 -285 0
-201 -311 0
-202 -312 0
-203 -313 0
-204 -314 0
-205 -315 0
-201 -511 0
-202 -512 0
-203 -513 0
-204 -514 0
-205 -515 0
-206 -486 0
-207 -487 0
-208 -488 0
-209 -489 0
-210 -490 0
-206 -536 0
-207 -537 0
-208 -538 0
-209 -539 0
-210 -540 0
-211 -241 0
-212 -242 0
-213 -243 0
-214 -244 0
-215 -245 0
-211 -286 0
-212 -287 0
-213 -288 0
-214 -289 0
-215 -290 0
-211 -381 0
-212 -382 0
-213 -383 0
-214 -384 0
-215 -385 0
-211 -406 0
-212 -407 0
-213 -408 0
-214 -409 0
-215 -410 0
-211 -426 0
-212 -427 0
-213 -428 0
-214 -429 0
-215 -430 0
-216 -276 0
-217 -277 0
-218 -278 0
-219 -279 0
-220 -280 0
-216 -396 0
-217 -397 0
-218 -398 0
-219 -399 0
-220 -400 0
-216 -456 0
-217 -457 0
-218 -458 0
-219 -459 0
-220 -460 0
-236 -361 0
-237 -362 0
-238 -363 0
-239 -364 0
-240 -365 0
-236 -426 0
-237 -427 0
-238 -428 0
-239 -429 0
-240 -430 0
-241 -256 0
-242 -257 0
-243 -258 0
-244 -259 0
-245 -260 0
-241 -346 0
-242 -347 0
-243 -348 0
-244 -349 0
-245 -350 0
-241 -356 0
-242 -357 0
-243 -358 0
-244 -359 0
-245 -360 0
-241 -416 0
-242 -417 0
-243 -418 0
-244 -419 0
-245 -420 0
-246 -371 0
-247 -372 0
-248 -373 0
-249 -374 0
-250 -375 0
-246 -421 0
-247 -422 0
-248 -423 0
-249 -424 0
-250 -425 0
-246 -486 0
-247 -487 0
-248 -488 0
-249 -489 0
-250 -490 0
-246 -541 0
-247 -542 0
-248 -543 0
-249 -544 0
-250 -545 0
-256 -356 0
-257 -357 0
-258 -358 0
-259 -359 0
-260 -360 0
-256 -426 0
-257 -427 0
-258 -428 0
-259 -429 0
-260 -430 0
-261 -296 0
-262 -297 0
-263 -298 0
-264 -299 0
-265 -300 0
-261 -311 0
-262 -312 0
-263 -313 0
-264 -314 0
-265 -315 0
-261 -401 0
-262 -402 0
-263 -403 0
-264 -404 0
-265 -405 0
-261 -421 0
-262 -422 0
-263 -423 0
-264 -424 0
-265 -425 0
-261 -516 0
-262 -517 0
-263 -518 0
-264 -519 0
-265 -520 0
-261 -541 0
-262 -542 0
-263 -543 0
-264 -544 0
-265 -545 0
-266 -281 0
-267 -282 0
-268 -283 0
-269 -284 0
-270 -285 0
-266 -321 0
-267 -322 0
-268 -323 0
-269 -324 0
-270 -325 0
-266 -376 0
-267 -377 0
-268 -378 0
-269 -379 0
-270 -380 0
-266 -406 0
-267 -407 0
-268 -408 0
-269 -409 0
-270 -410 0
-266 -536 0
-267 -537 0
-268 -538 0
-269 -539 0
-270 -540 0
-266 -546 0
-267 -547 0
-268 -548 0
-269 -549 0
-270 -550 0
-271 -296 0
-272 -297 0
-273 -298 0
-274 -299 0
-275 -300 0
-271 -376 0
-272 -377 0
-273 -378 0
-274 -379 0
-275 -380 0
-271 -461 0
-272 -462 0
-273 -463 0
-274 -464 0
-275 -465 0
-271 -476 0
-272 -477 0
-273 -478 0
-274 -479 0
-275 -480 0
-276 -291 0
-277 -292 0
-278 -293 0
-279 -294 0
-280 -295 0
-276 -326 0
-277 -327 0
-278 -328 0
-279 -329 0
-280 -330 0
-276 -461 0
-277 -462 0
-278 -463 0
-279 -464 0
-280 -465 0
-281 -321 0
-282 -322 0
-283 -323 0
-284 -324 0
-285 -325 0
-291 -306 0
-292 -307 0
-293 -308 0
-294 -309 0
-295 -310 0
-291 -316 0
-292 -317 0
-293 -318 0
-294 -319 0
-295 -320 0
-291 -361 0
-292 -362 0
-293 -363 0
-294 -364 0
-295 -365 0
-291 -391 0
-292 -392 0
-293 -393 0
-294 -394 0
-295 -395 0
-291 -466 0
-292 -467 0
-293 -468 0
-294 -469 0
-295 -470 0
-291 -536 0
-292 -537 0
-293 -538 0
-294 -539 0
-295 -540 0
-296 -341 0
-297 -342 0
-298 -343 0
-299 -344 0
-300 -345 0
-296 -361 0
-297 -362 0
-298 -363 0
-299 -364 0
-300 -365 0
-296 -461 0
-297 -462 0
-298 -463 0
-299 -464 0
-300 -465 0
-296 -486 0
-297 -487 0
-298 -488 0
-299 -489 0
-300 -490 0
-296 -526 0
-297 -527 0
-298 -528 0
-299 -529 0
-300 -530 0
-301 -491 0
-302 -492 0
-303 -493 0
-304 -494 0
-305 -495 0
-316 -366 0
-317 -367 0
-318 -368 0
-319 -369 0
-320 -370 0
-316 -416 0
-317 -417 0
-318 -418 0
-319 -419 0
-320 -420 0
-326 -371 0
-327 -372 0
-328 -373 0
-329 -374 0
-330 -375 0
-326 -406 0
-327 -407 0
-328 -408 0
-329 -409 0
-330 -410 0
-326 -491 0
-327 -492 0
-328 -493 0
-329 -494 0
-330 -495 0
-336 -351 0
-337 -352 0
-338 -353 0
-339 -354 0
-340 -355 0
-346 -376 0
-347 -377 0
-348 -378 0
-349 -379 0
-350 -380 0
-346 -381 0
-347 -382 0
-348 -383 0
-349 -384 0
-350 -385 0
-351 -441 0
-352 -442 0
-353 -443 0
-354 -444 0
-355 -445 0
-351 -511 0
-352 -512 0
-353 -513 0
-354 -514 0
-355 -515 0
-361 -466 0
-362 -467 0
-363 -468 0
-364 -469 0
-365 -470 0
-366 -541 0
-367 -542 0
-368 -543 0
-369 -544 0
-370 -545 0
-371 -406 0
-372 -407 0
-373 -408 0
-374 -409 0
-375 -410 0
-386 -431 0
-387 -432 0
-388 -433 0
-389 -434 0
-390 -435 0
-386 -446 0
-387 -447 0
-388 -448 0
-389 -449 0
-390 -450 0
-391 -401 0
-392 -402 0
-393 -403 0
-394 -404 0
-395 -405 0
-396 -501 0
-397 -502 0
-398 -503 0
-399 -504 0
-400 -505 0
-396 -506 0
-397 -507 0
-398 -508 0
-399 -509 0
-400 -510 0
-416 -441 0
-417 -442 0
-418 -443 0
-419 -444 0
-420 -445 0
-431 -436 0
-432 -437 0
-433 -438 0
-434 -439 0
-435 -440 0
-431 -471 0
-432 -472 0
-433 -473 0
-434 -474 0
-435 -475 0
-431 -476 0
-432 -477 0
-433 -478 0
-434 -479 0
-435 -480 0
-451 -521 0
-452 -522 0
-453 -523 0
-454 -524 0
-455 -525 0
-461 -501 0
-462 -502 0
-463 -503 0
-464 -504 0
-465 -505 0
-466 -481 0
-467 -482 0
-468 -483 0
-469 -484 0
-470 -485 0
-476 -546 0
-477 -547 0
-478 -548 0
-479 -549 0
-480 -550 0
-496 -516 0
-497 -517 0
-498 -518 0
-499 -519 0
-500 -520 0